Route 1: 0 7 62 56 35 19 72 0
Route 2: 0 82 3 25 46 97 65 0
Route 3: 0 51 49 75 24 41 27 93 14 36 0
Route 4: 0 60 40 70 34 10 77 11 18 53 0
Route 5: 0 81 76 61 47 74 23 57 2 4 83 89 96 0
Route 6: 0 5 91 92 90 1 16 31 28 26 37 50 0
Route 7: 0 38 30 58 63 98 29 0
Route 8: 0 20 54 13 15 59 12 6 86 52 43 79 0
Route 9: 0 42 21 8 66 39 33 99 71 0
Route 10: 0 95 32 69 100 9 80 67 17 48 64 0
Route 11: 0 78 22 68 45 88 55 94 44 87 85 84 73 0
